NAME: ACTUAL_TOURS/amz1047
TYPE: TOUR
COMMENT: RouteID_6e7c7c15-760c-48f7-9f9b-889096bd55ae
DIMENSION: 176
TOUR_SECTION
49
72
1
27
20
134
37
145
6
39
155
148
9
80
34
97
4
105
169
143
16
142
116
58
26
41
85
57
63
24
44
84
95
109
40
79
150
69
100
114
146
171
65
163
137
96
156
140
19
103
119
106
168
45
71
122
87
93
131
127
118
43
174
31
133
101
21
91
141
144
121
135
130
77
33
25
89
126
18
147
149
110
128
86
7
102
160
98
154
157
64
68
14
153
112
59
167
66
52
90
50
139
78
83
46
123
10
23
159
61
54
94
76
62
124
161
48
158
165
125
104
11
173
32
47
82
2
53
151
8
56
75
70
138
67
15
113
92
115
60
73
35
136
152
28
111
164
55
5
88
12
51
132
129
117
166
22
176
170
74
3
108
17
81
36
99
172
162
42
107
175
120
29
30
38
13
-1
EOF
